ACTORES = {Actor1, Actor2} ;

Escenas = [| 1,1,0,1,0,0,1,0,12
           | 1,0,1,0,1,1,0,0,13|]; 
           
Duracion = [2,1,1,1,3,4,1,2];


% ----------
% 8 6 5 3 1 7 4 2 190
% ----------
% ==========
% Finished in 589msec.